(set-info :smt-lib-version 2.6)
(set-logic QF_LRA)
(set-info :source |
TLP-GP automated DTP to SMT-LIB encoding for planning
by F.Maris and P.Regnier, IRIT - Universite Paul Sabatier, Toulouse

|)
(set-info :category "industrial")
(set-info :status sat)
(declare-fun St_spy_variable () Real)
(declare-fun t_Init_0 () Real)
(declare-fun t_Goal_31 () Real)
(declare-fun t_C_N9_27 () Real)
(declare-fun t_B_N9_26 () Real)
(declare-fun t_C_N8_24 () Real)
(declare-fun t_B_N8_23 () Real)
(declare-fun t_C_N7_21 () Real)
(declare-fun t_B_N7_20 () Real)
(declare-fun t_C_N6_18 () Real)
(declare-fun t_B_N6_17 () Real)
(declare-fun t_C_N5_15 () Real)
(declare-fun t_B_N5_14 () Real)
(declare-fun t_C_N4_12 () Real)
(declare-fun t_B_N4_11 () Real)
(declare-fun t_C_N3_9 () Real)
(declare-fun t_B_N3_8 () Real)
(declare-fun t_C_N2_6 () Real)
(declare-fun t_B_N2_5 () Real)
(declare-fun t_C_N1_3 () Real)
(declare-fun t_B_N1_2 () Real)
(declare-fun t_A_N1_1 () Real)
(declare-fun t_A_N2_4 () Real)
(declare-fun t_A_N3_7 () Real)
(declare-fun t_A_N4_10 () Real)
(declare-fun t_A_N5_13 () Real)
(declare-fun t_A_N6_16 () Real)
(declare-fun t_A_N7_19 () Real)
(declare-fun t_A_N8_22 () Real)
(declare-fun t_A_N9_25 () Real)
(declare-fun t_A_N10_28 () Real)
(declare-fun t_B_N10_29 () Real)
(declare-fun t_C_N10_30 () Real)
(assert (let ((?v_26 (- t_Goal_31 t_C_N9_27)) (?v_25 (- t_Goal_31 t_B_N9_26)) (?v_23 (- t_Goal_31 t_C_N8_24)) (?v_22 (- t_Goal_31 t_B_N8_23)) (?v_20 (- t_Goal_31 t_C_N7_21)) (?v_19 (- t_Goal_31 t_B_N7_20)) (?v_17 (- t_Goal_31 t_C_N6_18)) (?v_16 (- t_Goal_31 t_B_N6_17)) (?v_14 (- t_Goal_31 t_C_N5_15)) (?v_13 (- t_Goal_31 t_B_N5_14)) (?v_11 (- t_Goal_31 t_C_N4_12)) (?v_10 (- t_Goal_31 t_B_N4_11)) (?v_8 (- t_Goal_31 t_C_N3_9)) (?v_7 (- t_Goal_31 t_B_N3_8)) (?v_5 (- t_Goal_31 t_C_N2_6)) (?v_4 (- t_Goal_31 t_B_N2_5)) (?v_2 (- t_Goal_31 t_C_N1_3)) (?v_1 (- t_Goal_31 t_B_N1_2)) (?v_0 (- t_Goal_31 t_A_N1_1)) (?v_3 (- t_Goal_31 t_A_N2_4)) (?v_6 (- t_Goal_31 t_A_N3_7)) (?v_9 (- t_Goal_31 t_A_N4_10)) (?v_12 (- t_Goal_31 t_A_N5_13)) (?v_15 (- t_Goal_31 t_A_N6_16)) (?v_18 (- t_Goal_31 t_A_N7_19)) (?v_21 (- t_Goal_31 t_A_N8_22)) (?v_24 (- t_Goal_31 t_A_N9_25)) (?v_27 (- t_Goal_31 t_A_N10_28)) (?v_28 (- t_Goal_31 t_B_N10_29)) (?v_69 (- t_Goal_31 t_C_N10_30)) (?v_64 (- t_B_N1_2 t_A_N1_1))) (let ((?v_63 (< ?v_64 5)) (?v_62 (- t_C_N1_3 t_B_N1_2))) (let ((?v_61 (< ?v_62 4)) (?v_60 (- t_B_N2_5 t_A_N2_4))) (let ((?v_59 (< ?v_60 5)) (?v_58 (- t_C_N2_6 t_B_N2_5))) (let ((?v_57 (< ?v_58 4)) (?v_56 (- t_B_N3_8 t_A_N3_7))) (let ((?v_55 (< ?v_56 5)) (?v_54 (- t_C_N3_9 t_B_N3_8))) (let ((?v_53 (< ?v_54 4)) (?v_52 (- t_B_N4_11 t_A_N4_10))) (let ((?v_51 (< ?v_52 5)) (?v_50 (- t_C_N4_12 t_B_N4_11))) (let ((?v_49 (< ?v_50 4)) (?v_48 (- t_B_N5_14 t_A_N5_13))) (let ((?v_47 (< ?v_48 5)) (?v_46 (- t_C_N5_15 t_B_N5_14))) (let ((?v_45 (< ?v_46 4)) (?v_44 (- t_B_N6_17 t_A_N6_16))) (let ((?v_43 (< ?v_44 5)) (?v_42 (- t_C_N6_18 t_B_N6_17))) (let ((?v_41 (< ?v_42 4)) (?v_40 (- t_B_N7_20 t_A_N7_19))) (let ((?v_39 (< ?v_40 5)) (?v_38 (- t_C_N7_21 t_B_N7_20))) (let ((?v_37 (< ?v_38 4)) (?v_36 (- t_B_N8_23 t_A_N8_22))) (let ((?v_35 (< ?v_36 5)) (?v_34 (- t_C_N8_24 t_B_N8_23))) (let ((?v_33 (< ?v_34 4)) (?v_32 (- t_B_N9_26 t_A_N9_25))) (let ((?v_31 (< ?v_32 5)) (?v_30 (- t_C_N9_27 t_B_N9_26))) (let ((?v_29 (< ?v_30 4)) (?v_66 (- t_B_N10_29 t_A_N10_28))) (let ((?v_65 (< ?v_66 5)) (?v_68 (- t_C_N10_30 t_B_N10_29))) (let ((?v_67 (< ?v_68 4)) (?v_113 (- t_A_N10_28 t_C_N9_27)) (?v_108 (- t_A_N9_25 t_C_N8_24)) (?v_103 (- t_A_N8_22 t_C_N7_21)) (?v_98 (- t_A_N7_19 t_C_N6_18)) (?v_93 (- t_A_N6_16 t_C_N5_15)) (?v_88 (- t_A_N5_13 t_C_N4_12)) (?v_83 (- t_A_N4_10 t_C_N3_9)) (?v_78 (- t_A_N3_7 t_C_N2_6)) (?v_73 (- t_A_N2_4 t_C_N1_3)) (?v_70 (- t_A_N2_4 t_A_N1_1)) (?v_75 (- t_A_N3_7 t_A_N2_4)) (?v_80 (- t_A_N4_10 t_A_N3_7)) (?v_85 (- t_A_N5_13 t_A_N4_10)) (?v_90 (- t_A_N6_16 t_A_N5_13)) (?v_95 (- t_A_N7_19 t_A_N6_16)) (?v_100 (- t_A_N8_22 t_A_N7_19)) (?v_105 (- t_A_N9_25 t_A_N8_22)) (?v_110 (- t_A_N10_28 t_A_N9_25))) (let ((?v_143 (< ?v_70 5)) (?v_71 (> ?v_64 1))) (let ((?v_142 (or ?v_143 ?v_71)) (?v_72 (< ?v_0 6)) (?v_74 (< (- t_C_N1_3 t_A_N1_1) 4))) (let ((?v_141 (or (< ?v_73 1) ?v_74)) (?v_140 (< ?v_75 5)) (?v_76 (> ?v_60 1))) (let ((?v_139 (or ?v_140 ?v_76)) (?v_77 (< ?v_3 6)) (?v_79 (< (- t_C_N2_6 t_A_N2_4) 4))) (let ((?v_138 (or (< ?v_78 1) ?v_79)) (?v_137 (< ?v_80 5)) (?v_81 (> ?v_56 1))) (let ((?v_136 (or ?v_137 ?v_81)) (?v_82 (< ?v_6 6)) (?v_84 (< (- t_C_N3_9 t_A_N3_7) 4))) (let ((?v_135 (or (< ?v_83 1) ?v_84)) (?v_134 (< ?v_85 5)) (?v_86 (> ?v_52 1))) (let ((?v_133 (or ?v_134 ?v_86)) (?v_87 (< ?v_9 6)) (?v_89 (< (- t_C_N4_12 t_A_N4_10) 4))) (let ((?v_132 (or (< ?v_88 1) ?v_89)) (?v_131 (< ?v_90 5)) (?v_91 (> ?v_48 1))) (let ((?v_130 (or ?v_131 ?v_91)) (?v_92 (< ?v_12 6)) (?v_94 (< (- t_C_N5_15 t_A_N5_13) 4))) (let ((?v_129 (or (< ?v_93 1) ?v_94)) (?v_128 (< ?v_95 5)) (?v_96 (> ?v_44 1))) (let ((?v_127 (or ?v_128 ?v_96)) (?v_97 (< ?v_15 6)) (?v_99 (< (- t_C_N6_18 t_A_N6_16) 4))) (let ((?v_126 (or (< ?v_98 1) ?v_99)) (?v_125 (< ?v_100 5)) (?v_101 (> ?v_40 1))) (let ((?v_124 (or ?v_125 ?v_101)) (?v_102 (< ?v_18 6)) (?v_104 (< (- t_C_N7_21 t_A_N7_19) 4))) (let ((?v_123 (or (< ?v_103 1) ?v_104)) (?v_122 (< ?v_105 5)) (?v_106 (> ?v_36 1))) (let ((?v_121 (or ?v_122 ?v_106)) (?v_107 (< ?v_21 6)) (?v_109 (< (- t_C_N8_24 t_A_N8_22) 4))) (let ((?v_120 (or (< ?v_108 1) ?v_109)) (?v_119 (< ?v_110 5)) (?v_111 (> ?v_32 1))) (let ((?v_118 (or ?v_119 ?v_111)) (?v_112 (< ?v_24 6)) (?v_114 (< (- t_C_N9_27 t_A_N9_25) 4))) (let ((?v_117 (or (< ?v_113 1) ?v_114)) (?v_115 (> ?v_66 1))) (let ((?v_144 (or (< ?v_66 1) ?v_115)) (?v_116 (< ?v_27 6)) (?v_146 (- t_C_N10_30 t_A_N10_28))) (let ((?v_145 (< ?v_146 4))) (and (= St_spy_variable (+ 1 t_Init_0)) (>= t_Goal_31 t_Init_0) (>= (- t_C_N9_27 t_Init_0) 0) (>= ?v_26 1) (>= (- t_B_N9_26 t_Init_0) 0) (>= ?v_25 4) (>= (- t_C_N8_24 t_Init_0) 0) (>= ?v_23 1) (>= (- t_B_N8_23 t_Init_0) 0) (>= ?v_22 4) (>= (- t_C_N7_21 t_Init_0) 0) (>= ?v_20 1) (>= (- t_B_N7_20 t_Init_0) 0) (>= ?v_19 4) (>= (- t_C_N6_18 t_Init_0) 0) (>= ?v_17 1) (>= (- t_B_N6_17 t_Init_0) 0) (>= ?v_16 4) (>= (- t_C_N5_15 t_Init_0) 0) (>= ?v_14 1) (>= (- t_B_N5_14 t_Init_0) 0) (>= ?v_13 4) (>= (- t_C_N4_12 t_Init_0) 0) (>= ?v_11 1) (>= (- t_B_N4_11 t_Init_0) 0) (>= ?v_10 4) (>= (- t_C_N3_9 t_Init_0) 0) (>= ?v_8 1) (>= (- t_B_N3_8 t_Init_0) 0) (>= ?v_7 4) (>= (- t_C_N2_6 t_Init_0) 0) (>= ?v_5 1) (>= (- t_B_N2_5 t_Init_0) 0) (>= ?v_4 4) (>= (- t_C_N1_3 t_Init_0) 0) (>= ?v_2 1) (>= (- t_B_N1_2 t_Init_0) 0) (>= ?v_1 4) (>= (- t_A_N1_1 t_Init_0) 0) (>= ?v_0 5) (>= (- t_A_N2_4 t_Init_0) 0) (>= ?v_3 5) (>= (- t_A_N3_7 t_Init_0) 0) (>= ?v_6 5) (>= (- t_A_N4_10 t_Init_0) 0) (>= ?v_9 5) (>= (- t_A_N5_13 t_Init_0) 0) (>= ?v_12 5) (>= (- t_A_N6_16 t_Init_0) 0) (>= ?v_15 5) (>= (- t_A_N7_19 t_Init_0) 0) (>= ?v_18 5) (>= (- t_A_N8_22 t_Init_0) 0) (>= ?v_21 5) (>= (- t_A_N9_25 t_Init_0) 0) (>= ?v_24 5) (>= (- t_A_N10_28 t_Init_0) 0) (>= ?v_27 5) (>= (- t_B_N10_29 t_Init_0) 0) (>= ?v_28 4) (>= (- t_C_N10_30 t_Init_0) 0) (>= ?v_69 1) ?v_63 (>= ?v_0 6) ?v_61 (>= ?v_1 5) (>= ?v_2 2) ?v_59 (>= ?v_3 6) ?v_57 (>= ?v_4 5) (>= ?v_5 2) ?v_55 (>= ?v_6 6) ?v_53 (>= ?v_7 5) (>= ?v_8 2) ?v_51 (>= ?v_9 6) ?v_49 (>= ?v_10 5) (>= ?v_11 2) ?v_47 (>= ?v_12 6) ?v_45 (>= ?v_13 5) (>= ?v_14 2) ?v_43 (>= ?v_15 6) ?v_41 (>= ?v_16 5) (>= ?v_17 2) ?v_39 (>= ?v_18 6) ?v_37 (>= ?v_19 5) (>= ?v_20 2) ?v_35 (>= ?v_21 6) ?v_33 (>= ?v_22 5) (>= ?v_23 2) ?v_31 (>= ?v_24 6) ?v_29 (>= ?v_25 5) (>= ?v_26 2) ?v_65 (>= ?v_27 6) ?v_67 (>= ?v_28 5) ?v_29 ?v_29 (>= ?v_30 0) (>= ?v_113 1) ?v_31 ?v_31 (>= ?v_32 0) (>= (- t_A_N10_28 t_B_N9_26) 4) ?v_33 ?v_33 (>= ?v_34 0) (>= ?v_108 1) ?v_35 ?v_35 (>= ?v_36 0) (>= (- t_A_N9_25 t_B_N8_23) 4) ?v_37 ?v_37 (>= ?v_38 0) (>= ?v_103 1) ?v_39 ?v_39 (>= ?v_40 0) (>= (- t_A_N8_22 t_B_N7_20) 4) ?v_41 ?v_41 (>= ?v_42 0) (>= ?v_98 1) ?v_43 ?v_43 (>= ?v_44 0) (>= (- t_A_N7_19 t_B_N6_17) 4) ?v_45 ?v_45 (>= ?v_46 0) (>= ?v_93 1) ?v_47 ?v_47 (>= ?v_48 0) (>= (- t_A_N6_16 t_B_N5_14) 4) ?v_49 ?v_49 (>= ?v_50 0) (>= ?v_88 1) ?v_51 ?v_51 (>= ?v_52 0) (>= (- t_A_N5_13 t_B_N4_11) 4) ?v_53 ?v_53 (>= ?v_54 0) (>= ?v_83 1) ?v_55 ?v_55 (>= ?v_56 0) (>= (- t_A_N4_10 t_B_N3_8) 4) ?v_57 ?v_57 (>= ?v_58 0) (>= ?v_78 1) ?v_59 ?v_59 (>= ?v_60 0) (>= (- t_A_N3_7 t_B_N2_5) 4) ?v_61 ?v_61 (>= ?v_62 0) (>= ?v_73 1) ?v_63 ?v_63 (>= ?v_64 0) (>= (- t_A_N2_4 t_B_N1_2) 4) (>= ?v_70 5) (>= ?v_75 5) (>= ?v_80 5) (>= ?v_85 5) (>= ?v_90 5) (>= ?v_95 5) (>= ?v_100 5) (>= ?v_105 5) (>= ?v_110 5) ?v_65 (>= ?v_66 0) ?v_67 (>= ?v_68 0) (>= ?v_69 2) ?v_142 (or ?v_72 ?v_71) (or ?v_74 (< ?v_2 2)) (or ?v_71 ?v_72) ?v_141 ?v_139 (or ?v_77 ?v_76) (or ?v_79 (< ?v_5 2)) (or ?v_76 ?v_77) ?v_138 ?v_136 (or ?v_82 ?v_81) (or ?v_84 (< ?v_8 2)) (or ?v_81 ?v_82) ?v_135 ?v_133 (or ?v_87 ?v_86) (or ?v_89 (< ?v_11 2)) (or ?v_86 ?v_87) ?v_132 ?v_130 (or ?v_92 ?v_91) (or ?v_94 (< ?v_14 2)) (or ?v_91 ?v_92) ?v_129 ?v_127 (or ?v_97 ?v_96) (or ?v_99 (< ?v_17 2)) (or ?v_96 ?v_97) ?v_126 ?v_124 (or ?v_102 ?v_101) (or ?v_104 (< ?v_20 2)) (or ?v_101 ?v_102) ?v_123 ?v_121 (or ?v_107 ?v_106) (or ?v_109 (< ?v_23 2)) (or ?v_106 ?v_107) ?v_120 ?v_118 (or ?v_112 ?v_111) (or ?v_114 (< ?v_26 2)) (or ?v_111 ?v_112) ?v_117 ?v_144 (or ?v_116 ?v_115) (or ?v_145 (< ?v_69 2)) (or ?v_115 ?v_116) (or ?v_111 (< ?v_32 1)) ?v_117 ?v_118 (or ?v_111 ?v_119) (or ?v_106 (< ?v_36 1)) ?v_120 ?v_121 (or ?v_106 ?v_122) (or ?v_101 (< ?v_40 1)) ?v_123 ?v_124 (or ?v_101 ?v_125) (or ?v_96 (< ?v_44 1)) ?v_126 ?v_127 (or ?v_96 ?v_128) (or ?v_91 (< ?v_48 1)) ?v_129 ?v_130 (or ?v_91 ?v_131) (or ?v_86 (< ?v_52 1)) ?v_132 ?v_133 (or ?v_86 ?v_134) (or ?v_81 (< ?v_56 1)) ?v_135 ?v_136 (or ?v_81 ?v_137) (or ?v_76 (< ?v_60 1)) ?v_138 ?v_139 (or ?v_76 ?v_140) (or ?v_71 (< ?v_64 1)) ?v_141 ?v_142 (or ?v_71 ?v_143) ?v_144 (or ?v_145 (> ?v_146 4))))))))))))))))))))))))))))))))))))))))))))))
(check-sat)
(exit)
